50, 2476349
100004, 748
100041, 203
100037, 206
100078, 601
100100, 57
100009, 777
100054, 765
100010, 42
100079, 684
100095, 503
100071, 636
100058, 954
100004, 987
100009, 410
100024, 845
100008, 787
100013, 972
100096, 29
100035, 938
100091, 223
100076, 130
100078, 598
100092, 839
100070, 957
100035, 365
100047, 828
100039, 31
100003, 969
100004, 294
100057, 544
100052, 125
100098, 44
100062, 8
100082, 601
100048, 562
100058, 816
100082, 852
100003, 424
100001, 848
100043, 201
100029, 881
100043, 251
100006, 940
100017, 385
100009, 429
100061, 519
100003, 59
100002, 75
100068, 545
100042, 715
